p cnf 22 7
a 1 0
e 2 0
a 3 4 0
e 5 6 0
a 7 0
e 8 0
a 9 0
e 10 0
a 11 12 0
e 13 0
a 14 15 0
e 16 17 18 0
a 19 0
e 20 21 0
a 22 0
6 14 -5 -22 0
19 -15 11 1 2 0
11 9 -16 6 21 0
-19 -22 -9 0
22 16 -13 -1 20 0
-17 -4 -20 5 0
1 -3 -2 -11 0
